regression_itp/log-2023-02-20-10-22-36/issue152_itp.smt2.out
sat
sat
unsat
((not (<= 0 (* -1 r11))))
